
include ${pot}.lmp
include kalj.lmp
units lj
atom_style atomic

variable dimensions equal 3
variable density equal 1.2
variable fraca equal 0.8

dimension ${dimensions}
dimension 3
read_restart ${prevbasename}.final.lmprestart.${steps}
read_restart equil/kalj_T1_n360_v300_50000_1.final.lmprestart.${steps}
read_restart equil/kalj_T1_n360_v300_50000_1.final.lmprestart.50000
Reading restart file ...
  restart file = 15 Sep 2022, LAMMPS = 15 Sep 2022
  restoring atom style atomic from restart
  orthogonal box = (0 0 0) to (6.6943295 6.6943295 6.6943295)
  1 by 2 by 2 MPI processor grid
  restoring pair style lj/cut from restart
  360 atoms
  read_restart CPU = 0.025 seconds
include ${pot}_particles.lmp
include kalj_particles.lmp
mass * 1.0 #  set mass 1.0 for all types

pair_style lj/cut 2.5
#pair coeffs type1 type2 eps sigma
pair_coeff 1 1 1.0 1.00 2.5
pair_coeff 1 2 1.5 0.80 2.0
pair_coeff 2 2 0.5 0.88 2.2
pair_modify shift yes
reset_timestep 0

print "Setting up equilibration run"
Setting up equilibration run
variable dumptime2 equal ${steps}/2000
variable dumptime2 equal 50000/2000
dump 1 all dcd ${dumptime2} ${basename}.unwrap.dcd
dump 1 all dcd 25 ${basename}.unwrap.dcd
dump 1 all dcd 25 prod/kalj_T1_n360_v300_prod_50000_1.unwrap.dcd
#dump 2 all dcd ${dumptime2} ${basename}.dcd
dump_modify 1 unwrap yes
#dump_modify 2 unwrap no

restart ${restarttime} ${basename}.restart
restart 30000 ${basename}.restart
restart 30000 prod/kalj_T1_n360_v300_prod_50000_1.restart
restart ${steps} ${basename}.final.lmprestart
restart 50000 ${basename}.final.lmprestart
restart 50000 prod/kalj_T1_n360_v300_prod_50000_1.final.lmprestart

thermo ${thermotime}
thermo 2000
timestep ${timestep}
timestep 0.002

neighbor 0.5 bin
neigh_modify every 1 delay ${neighborstep} check yes
neigh_modify every 1 delay 20 check yes

#velocity all create ${temp} ${id} dist gaussian
fix 1 all nvt temp ${temp} ${temp} ${taut}
fix 1 all nvt temp 1 ${temp} ${taut}
fix 1 all nvt temp 1 1 ${taut}
fix 1 all nvt temp 1 1 0.2
Resetting global fix info from restart file:
  fix style: nvt, fix ID: 1

variable steps4 equal ${steps}/4
variable steps4 equal 50000/4
run ${steps4}
run 12500
Generated 0 of 1 mixed pair_coeff terms from geometric mixing rule
All restart file global fix info was re-assigned
Neighbor list info ...
  update: every = 1 steps, delay = 20 steps, check = yes
  max neighbors/atom: 2000, page size: 100000
  master list distance cutoff = 3
  ghost atom cutoff = 3
  binsize = 1.5, bins = 5 5 5
  1 neighbor lists, perpetual/occasional/extra = 1 0 0
  (1) pair lj/cut, perpetual
      attributes: half, newton on
      pair build: half/bin/atomonly/newton
      stencil: half/bin/3d
      bin: standard
Per MPI rank memory allocation (min/avg/max) = 3.138 | 3.138 | 3.139 Mbytes
   Step          Temp          E_pair         E_mol          TotEng         Press     
         0   0.90216103    -5.958117       0             -4.6086344      10.094231    
      2000   1.0377424     -5.959459       0             -4.4071693      10.380437    
      4000   0.99828909    -5.9271692      0             -4.4338951      10.479486    
      6000   1.0562257     -6.0606485      0             -4.4807109      9.6229548    
      8000   0.98774179    -6.0693491      0             -4.591852       9.5000217    
     10000   1.0340334     -6.0625254      0             -4.5157838      9.6109731    
     12000   1.0073606     -6.0217606      0             -4.5149171      9.8871032    
     12500   1.0090783     -5.9478796      0             -4.4384667      10.47427     
Loop time of 1.2878 on 4 procs for 12500 steps with 360 atoms

Performance: 1677280.795 tau/day, 9706.486 timesteps/s, 3.494 Matom-step/s
99.4% CPU use with 4 MPI tasks x 1 OpenMP threads

MPI task timing breakdown:
Section |  min time  |  avg time  |  max time  |%varavg| %total
---------------------------------------------------------------
Pair    | 0.6063     | 0.6278     | 0.63672    |   1.6 | 48.75
Neigh   | 0.054967   | 0.05591    | 0.057028   |   0.3 |  4.34
Comm    | 0.48578    | 0.51792    | 0.56036    |   4.0 | 40.22
Output  | 0.015324   | 0.018425   | 0.024897   |   2.8 |  1.43
Modify  | 0.029466   | 0.049993   | 0.069531   |   7.9 |  3.88
Other   |            | 0.01775    |            |       |  1.38

Nlocal:             90 ave          94 max          87 min
Histogram: 2 0 0 0 0 0 0 1 0 1
Nghost:           1243 ave        1266 max        1212 min
Histogram: 1 0 0 0 0 1 0 1 0 1
Neighs:           5192 ave        5430 max        4973 min
Histogram: 1 0 0 0 1 1 0 0 0 1

Total # of neighbors = 20768
Ave neighs/atom = 57.688889
Neighbor list builds = 336
Dangerous builds = 0
Total wall time: 0:00:01
