
include ${pot}.lmp
include kalj.lmp
units lj
atom_style atomic

variable dimensions equal 3
variable density equal 1.2
variable fraca equal 0.8

dimension ${dimensions}
dimension 3
read_restart ${prevbasename}.final.lmprestart.${prevsteps}
read_restart equil/kalj_T0.5_n360_v300_10000000_1.final.lmprestart.${prevsteps}
read_restart equil/kalj_T0.5_n360_v300_10000000_1.final.lmprestart.10000000
Reading restart file ...
  restart file = 15 Sep 2022, LAMMPS = 15 Sep 2022
  restoring atom style atomic from restart
  orthogonal box = (0 0 0) to (6.6943295 6.6943295 6.6943295)
  1 by 2 by 2 MPI processor grid
  restoring pair style lj/cut from restart
  360 atoms
  read_restart CPU = 0.002 seconds
include ${pot}_particles.lmp
include kalj_particles.lmp
mass * 1.0 #  set mass 1.0 for all types

pair_style lj/cut 2.5
#pair coeffs type1 type2 eps sigma
pair_coeff 1 1 1.0 1.00 2.5
pair_coeff 1 2 1.5 0.80 2.0
pair_coeff 2 2 0.5 0.88 2.2
pair_modify shift yes
reset_timestep 0

print "Setting up annealing run"
Setting up annealing run
dump 1 all atom ${dumptime} ${basename}.lammpstrj
dump 1 all atom 3000000 ${basename}.lammpstrj
dump 1 all atom 3000000 equil/kalj_T0.475_n360_v300_30000000_1.lammpstrj
#dump_modify 1 sort id scale no

restart ${restarttime} ${basename}.restart
restart 30000000 ${basename}.restart
restart 30000000 equil/kalj_T0.475_n360_v300_30000000_1.restart
restart ${steps} ${basename}.final.lmprestart
restart 30000000 ${basename}.final.lmprestart
restart 30000000 equil/kalj_T0.475_n360_v300_30000000_1.final.lmprestart

thermo ${thermotime}
thermo 300000
timestep ${timestep}
timestep 0.003

neighbor 0.5 bin
neigh_modify every 1 delay ${neighborstep} check yes
neigh_modify every 1 delay 25 check yes

velocity all create ${temp} ${id} dist gaussian
velocity all create 0.475 ${id} dist gaussian
velocity all create 0.475 1 dist gaussian
fix 1 all nvt temp ${temp} ${temp} ${taut}
fix 1 all nvt temp 0.475 ${temp} ${taut}
fix 1 all nvt temp 0.475 0.475 ${taut}
fix 1 all nvt temp 0.475 0.475 0.3
Resetting global fix info from restart file:
  fix style: nvt, fix ID: 1
run ${steps}
run 30000000
Generated 0 of 1 mixed pair_coeff terms from geometric mixing rule
All restart file global fix info was re-assigned
Neighbor list info ...
  update: every = 1 steps, delay = 25 steps, check = yes
  max neighbors/atom: 2000, page size: 100000
  master list distance cutoff = 3
  ghost atom cutoff = 3
  binsize = 1.5, bins = 5 5 5
  1 neighbor lists, perpetual/occasional/extra = 1 0 0
  (1) pair lj/cut, perpetual
      attributes: half, newton on
      pair build: half/bin/atomonly/newton
      stencil: half/bin/3d
      bin: standard
Per MPI rank memory allocation (min/avg/max) = 4.117 | 4.117 | 4.117 Mbytes
   Step          Temp          E_pair         E_mol          TotEng         Press     
         0   0.475         -6.9012326      0             -6.1907117      3.730485     
    300000   0.48301938    -6.9391312      0             -6.2166147      3.5759069    
    600000   0.48564368    -6.9147271      0             -6.1882851      3.7193049    
    900000   0.49569659    -6.9590746      0             -6.2175951      3.4848544    
   1200000   0.4828128     -6.9869916      0             -6.2647841      3.2422934    
   1500000   0.49699569    -6.91541        0             -6.1719873      3.8968096    
   1800000   0.48622569    -6.9440663      0             -6.2167537      3.5276678    
   2100000   0.43622134    -6.9586833      0             -6.3061689      3.366358     
   2400000   0.44596095    -6.9099709      0             -6.2428876      3.6292677    
   2700000   0.47284892    -6.9477951      0             -6.2404919      3.5073064    
   3000000   0.50133748    -6.9564536      0             -6.2065363      3.4510744    
   3300000   0.45578746    -6.9800952      0             -6.2983132      3.3160883    
   3600000   0.48809997    -7.026354       0             -6.2962378      3.088528     
   3900000   0.44162756    -6.9997176      0             -6.3391164      3.1263309    
   4200000   0.47942995    -6.9657894      0             -6.2486421      3.307307     
   4500000   0.49368903    -6.9854276      0             -6.2469511      3.2068301    
   4800000   0.4811217     -6.9540983      0             -6.2344204      3.4256968    
   5100000   0.47903815    -6.9900305      0             -6.2734692      3.2434593    
   5400000   0.46846423    -6.9333728      0             -6.2326284      3.7427034    
   5700000   0.50824388    -6.9126791      0             -6.152431       3.8273724    
   6000000   0.48689026    -6.8915259      0             -6.1632192      3.7569244    
   6300000   0.46514888    -6.8971605      0             -6.2013753      3.7777144    
   6600000   0.49708818    -6.985847       0             -6.2422859      3.3320937    
   6900000   0.47277183    -6.9717805      0             -6.2645927      3.3980692    
   7200000   0.48590947    -6.9602052      0             -6.2333656      3.3642944    
   7500000   0.48532599    -6.9378798      0             -6.211913       3.7163001    
   7800000   0.48631122    -7.0041402      0             -6.2766997      3.1583781    
   8100000   0.43978117    -6.8867636      0             -6.2289243      3.7759627    
   8400000   0.48023856    -6.9361228      0             -6.2177659      3.6121469    
   8700000   0.46142834    -6.8950983      0             -6.2048784      3.7306165    
   9000000   0.46251338    -6.9522537      0             -6.2604107      3.4158711    
   9300000   0.48527105    -6.9669452      0             -6.2410606      3.4411464    
   9600000   0.48449661    -6.8950922      0             -6.170366       3.935934     
   9900000   0.47928025    -6.9265199      0             -6.2095966      3.7458501    
  10200000   0.52757253    -6.9391953      0             -6.1500347      3.6026232    
  10500000   0.49871064    -6.9626246      0             -6.2166366      3.4236559    
  10800000   0.47984166    -6.9551883      0             -6.2374252      3.4930471    
  11100000   0.46125272    -6.9251381      0             -6.2351809      3.6354184    
  11400000   0.50020071    -6.9477551      0             -6.1995382      3.5229086    
  11700000   0.48354624    -6.9324466      0             -6.209142       3.5287672    
  12000000   0.48849401    -6.9142398      0             -6.1835342      3.8963905    
  12300000   0.46354949    -6.9854842      0             -6.2920914      3.1709845    
  12600000   0.47535102    -7.0001794      0             -6.2891335      3.0627329    
  12900000   0.46109315    -6.9317826      0             -6.2420641      3.6627578    
  13200000   0.45260212    -6.9474096      0             -6.2703922      3.4993142    
  13500000   0.46171585    -6.9475499      0             -6.2569         3.386887     
  13800000   0.47352047    -6.907261       0             -6.1989533      3.8174586    
  14100000   0.46732564    -6.9405638      0             -6.2415225      3.5233321    
  14400000   0.43604958    -6.9378274      0             -6.2855699      3.6033267    
  14700000   0.51705701    -6.9429087      0             -6.1694776      3.5750447    
  15000000   0.45929872    -6.941457       0             -6.2544227      3.439815     
  15300000   0.50867401    -6.8219456      0             -6.0610541      4.1756136    
  15600000   0.4625104     -6.9239936      0             -6.2321551      3.5574431    
  15900000   0.52612249    -6.9583966      0             -6.1714051      3.4880527    
  16200000   0.48261387    -6.9667684      0             -6.2448585      3.3814859    
  16500000   0.48560882    -6.9027084      0             -6.1763186      3.7266688    
  16800000   0.45861448    -7.0194435      0             -6.3334326      2.8905863    
  17100000   0.48740813    -6.9764775      0             -6.2473961      3.3166917    
  17400000   0.45465347    -6.9605095      0             -6.2804237      3.2332595    
  17700000   0.4873666     -6.9641906      0             -6.2351714      3.4217359    
  18000000   0.45185753    -6.8919196      0             -6.216016       3.8147423    
  18300000   0.44344963    -6.8946402      0             -6.2313134      3.7539799    
  18600000   0.46166573    -6.9628346      0             -6.2722596      3.4258076    
  18900000   0.49437783    -6.956022       0             -6.2165152      3.5902742    
  19200000   0.48369518    -6.9540039      0             -6.2304765      3.3515793    
  19500000   0.48967551    -6.9556797      0             -6.2232067      3.3484592    
  19800000   0.47180399    -6.9694852      0             -6.263745       3.4876311    
  20100000   0.49160829    -7.0152907      0             -6.2799266      3.1364155    
  20400000   0.46678353    -7.0540356      0             -6.3558053      2.8318478    
  20700000   0.48562709    -7.0008327      0             -6.2744155      3.0437138    
  21000000   0.4441124     -6.9447078      0             -6.2803897      3.4578292    
  21300000   0.49465344    -6.9577539      0             -6.2178348      3.4406452    
  21600000   0.4618249     -6.8966689      0             -6.2058558      3.8243456    
  21900000   0.46368523    -6.9499098      0             -6.2563139      3.5651327    
  22200000   0.48468154    -6.9756009      0             -6.2505981      3.1197413    
  22500000   0.50590129    -7.0006712      0             -6.2439272      3.1013981    
  22800000   0.48789202    -6.9709177      0             -6.2411126      3.342798     
  23100000   0.47649786    -6.9375409      0             -6.2247795      3.6479103    
  23400000   0.45792969    -6.9207587      0             -6.2357722      3.7285316    
  23700000   0.47664399    -6.9677263      0             -6.2547464      3.3794162    
  24000000   0.50341318    -6.9048378      0             -6.1518156      3.8084334    
  24300000   0.48859356    -6.9825511      0             -6.2516966      3.4680165    
  24600000   0.44487209    -6.9330531      0             -6.2675986      3.4848737    
  24900000   0.45303478    -6.9248636      0             -6.2471991      3.7773644    
  25200000   0.47415137    -6.9833624      0             -6.2741109      3.219385     
  25500000   0.4616765     -6.9616004      0             -6.2710094      3.370192     
  25800000   0.46215518    -6.924923       0             -6.2336158      3.4981932    
  26100000   0.51608352    -6.9619326      0             -6.1899577      3.3166931    
  26400000   0.46593631    -6.9615625      0             -6.2645994      3.2882537    
  26700000   0.43545245    -6.9714207      0             -6.3200565      3.2727838    
  27000000   0.44693864    -6.9647896      0             -6.2962439      3.3448129    
  27300000   0.45898289    -6.9343374      0             -6.2477755      3.5413128    
  27600000   0.45547496    -6.8994978      0             -6.2181831      3.6703566    
  27900000   0.48381168    -6.951864       0             -6.2281624      3.3611894    
  28200000   0.48419505    -6.9162979      0             -6.1920228      3.5812589    
  28500000   0.50736256    -6.9130399      0             -6.15411        3.7415669    
  28800000   0.48601277    -6.953131       0             -6.2261369      3.4174187    
  29100000   0.48111705    -6.9642645      0             -6.2445936      3.5328805    
  29400000   0.45849809    -6.8792465      0             -6.1934098      3.8687646    
  29700000   0.48171341    -6.9554123      0             -6.2348494      3.4320096    
  30000000   0.46452507    -6.9368852      0             -6.2420331      3.6247444    
Loop time of 3124.7 on 4 procs for 30000000 steps with 360 atoms

Performance: 2488559.046 tau/day, 9600.922 timesteps/s, 3.456 Matom-step/s
99.6% CPU use with 4 MPI tasks x 1 OpenMP threads

MPI task timing breakdown:
Section |  min time  |  avg time  |  max time  |%varavg| %total
---------------------------------------------------------------
Pair    | 1537.9     | 1548.5     | 1562.1     |  25.2 | 49.56
Neigh   | 130.03     | 131.44     | 132.16     |   7.3 |  4.21
Comm    | 1239       | 1286.7     | 1349.8     | 127.8 | 41.18
Output  | 0.3277     | 0.32845    | 0.33065    |   0.2 |  0.01
Modify  | 72.774     | 126.51     | 176.9      | 412.8 |  4.05
Other   |            | 31.24      |            |       |  1.00

Nlocal:             90 ave          92 max          87 min
Histogram: 1 0 0 0 1 0 0 0 0 2
Nghost:        1240.25 ave        1262 max        1215 min
Histogram: 1 0 0 0 0 2 0 0 0 1
Neighs:         5196.5 ave        5430 max        5029 min
Histogram: 1 1 0 0 0 1 0 0 0 1

Total # of neighbors = 20786
Ave neighs/atom = 57.738889
Neighbor list builds = 769866
Dangerous builds = 960
Total wall time: 0:52:04
