
include ${pot}.lmp
include kalj.lmp
units lj
atom_style atomic

variable dimensions equal 3
variable density equal 1.2
variable fraca equal 0.8

dimension ${dimensions}
dimension 3
read_restart ${prevbasename}.final.lmprestart.${prevsteps}
read_restart equil/kalj_T0.55_n360_v300_3000000_1.final.lmprestart.${prevsteps}
read_restart equil/kalj_T0.55_n360_v300_3000000_1.final.lmprestart.3000000
Reading restart file ...
  restart file = 15 Sep 2022, LAMMPS = 15 Sep 2022
  restoring atom style atomic from restart
  orthogonal box = (0 0 0) to (6.6943295 6.6943295 6.6943295)
  1 by 2 by 2 MPI processor grid
  restoring pair style lj/cut from restart
  360 atoms
  read_restart CPU = 0.003 seconds
include ${pot}_particles.lmp
include kalj_particles.lmp
mass * 1.0 #  set mass 1.0 for all types

pair_style lj/cut 2.5
#pair coeffs type1 type2 eps sigma
pair_coeff 1 1 1.0 1.00 2.5
pair_coeff 1 2 1.5 0.80 2.0
pair_coeff 2 2 0.5 0.88 2.2
pair_modify shift yes
reset_timestep 0

print "Setting up annealing run"
Setting up annealing run
dump 1 all atom ${dumptime} ${basename}.lammpstrj
dump 1 all atom 1000000 ${basename}.lammpstrj
dump 1 all atom 1000000 equil/kalj_T0.5_n360_v300_10000000_1.lammpstrj
#dump_modify 1 sort id scale no

restart ${restarttime} ${basename}.restart
restart 10000000 ${basename}.restart
restart 10000000 equil/kalj_T0.5_n360_v300_10000000_1.restart
restart ${steps} ${basename}.final.lmprestart
restart 10000000 ${basename}.final.lmprestart
restart 10000000 equil/kalj_T0.5_n360_v300_10000000_1.final.lmprestart

thermo ${thermotime}
thermo 100000
timestep ${timestep}
timestep 0.003

neighbor 0.5 bin
neigh_modify every 1 delay ${neighborstep} check yes
neigh_modify every 1 delay 25 check yes

velocity all create ${temp} ${id} dist gaussian
velocity all create 0.5 ${id} dist gaussian
velocity all create 0.5 1 dist gaussian
fix 1 all nvt temp ${temp} ${temp} ${taut}
fix 1 all nvt temp 0.5 ${temp} ${taut}
fix 1 all nvt temp 0.5 0.5 ${taut}
fix 1 all nvt temp 0.5 0.5 0.3
Resetting global fix info from restart file:
  fix style: nvt, fix ID: 1
run ${steps}
run 10000000
Generated 0 of 1 mixed pair_coeff terms from geometric mixing rule
All restart file global fix info was re-assigned
Neighbor list info ...
  update: every = 1 steps, delay = 25 steps, check = yes
  max neighbors/atom: 2000, page size: 100000
  master list distance cutoff = 3
  ghost atom cutoff = 3
  binsize = 1.5, bins = 5 5 5
  1 neighbor lists, perpetual/occasional/extra = 1 0 0
  (1) pair lj/cut, perpetual
      attributes: half, newton on
      pair build: half/bin/atomonly/newton
      stencil: half/bin/3d
      bin: standard
Per MPI rank memory allocation (min/avg/max) = 4.116 | 4.116 | 4.117 Mbytes
   Step          Temp          E_pair         E_mol          TotEng         Press     
         0   0.5           -6.8617778      0             -6.1138612      4.2007052    
    100000   0.4965851     -6.9400936      0             -6.1972851      3.6083107    
    200000   0.49815484    -6.9162253      0             -6.1710687      3.7178834    
    300000   0.50790584    -6.8831166      0             -6.1233741      4.1238333    
    400000   0.4802046     -6.9206803      0             -6.2023743      3.7025612    
    500000   0.49460762    -6.9170233      0             -6.1771727      3.802136     
    600000   0.49790287    -6.8520142      0             -6.1072345      4.1357278    
    700000   0.5062238     -6.9038576      0             -6.1466312      3.997833     
    800000   0.50029161    -6.9465607      0             -6.1982078      3.4865564    
    900000   0.510936      -6.9692481      0             -6.204973       3.3688862    
   1000000   0.499108      -6.8611483      0             -6.1145659      4.1395272    
   1100000   0.48759256    -6.8598291      0             -6.1304719      4.1338324    
   1200000   0.50975059    -6.9569499      0             -6.1944479      3.3605472    
   1300000   0.50525431    -6.9055935      0             -6.1498173      3.6583376    
   1400000   0.51222606    -6.904194       0             -6.1379892      3.7757465    
   1500000   0.43999321    -6.8573636      0             -6.199207       3.8402598    
   1600000   0.52244211    -6.886177       0             -6.1046907      3.8609237    
   1700000   0.49572814    -6.8995086      0             -6.1579819      3.8896298    
   1800000   0.50917605    -6.9282918      0             -6.1666493      3.7440717    
   1900000   0.51613287    -6.9382972      0             -6.1662485      3.5962809    
   2000000   0.49567783    -6.9513174      0             -6.209866       3.5070691    
   2100000   0.50486859    -6.8944897      0             -6.1392905      3.9141908    
   2200000   0.49757983    -6.8179452      0             -6.0736487      4.3976939    
   2300000   0.44518611    -6.8980165      0             -6.2320923      3.745676     
   2400000   0.49085519    -6.9678815      0             -6.2336439      3.3877608    
   2500000   0.51341603    -6.8661524      0             -6.0981676      4.0844486    
   2600000   0.50768901    -6.9134113      0             -6.1539932      3.7939817    
   2700000   0.51672274    -6.8783701      0             -6.105439       3.9512089    
   2800000   0.47692465    -6.8438834      0             -6.1304836      4.0710278    
   2900000   0.50941181    -6.9274829      0             -6.1654878      3.7570102    
   3000000   0.49648151    -6.8762304      0             -6.1335768      3.997517     
   3100000   0.52822949    -6.8441938      0             -6.0540505      4.2610837    
   3200000   0.50814474    -6.8628677      0             -6.1027678      3.9961886    
   3300000   0.49388073    -6.9274187      0             -6.1886554      3.7034659    
   3400000   0.49945243    -6.9203911      0             -6.1732935      3.6803137    
   3500000   0.52875086    -6.9218315      0             -6.1309083      3.7054666    
   3600000   0.54169786    -6.9396438      0             -6.1293541      3.7230819    
   3700000   0.46818207    -6.833006       0             -6.1326836      4.3873142    
   3800000   0.49803523    -6.9220124      0             -6.1770347      3.8107413    
   3900000   0.50973269    -6.8914073      0             -6.1289321      3.7878653    
   4000000   0.54008662    -6.8739619      0             -6.0660823      4.0295531    
   4100000   0.49701446    -6.8950936      0             -6.1516428      4.0527135    
   4200000   0.49101813    -6.8774278      0             -6.1429465      3.8199753    
   4300000   0.49388133    -6.8800945      0             -6.1413303      3.814193     
   4400000   0.45997822    -6.943417       0             -6.2553662      3.6356811    
   4500000   0.50301232    -6.9661098      0             -6.2136872      3.2321128    
   4600000   0.49969587    -6.8624187      0             -6.114957       4.1513593    
   4700000   0.48591955    -6.9253634      0             -6.1985088      3.5209286    
   4800000   0.48313062    -6.8899567      0             -6.1672738      3.8347714    
   4900000   0.47181167    -6.86961        0             -6.1638584      3.9476669    
   5000000   0.49351886    -6.9144311      0             -6.1762092      3.6464804    
   5100000   0.50496254    -6.827695       0             -6.0723552      4.2593656    
   5200000   0.50045121    -6.9101063      0             -6.1615147      3.6670468    
   5300000   0.48807368    -6.8819167      0             -6.1518398      4.130006     
   5400000   0.48683873    -6.847077       0             -6.1188474      4.2336602    
   5500000   0.50560748    -6.9116277      0             -6.1553232      3.7852483    
   5600000   0.49406435    -6.8968701      0             -6.1578322      3.7608446    
   5700000   0.50862662    -6.8681585      0             -6.1073378      4.0506632    
   5800000   0.4975068     -6.8518568      0             -6.1076696      4.0182931    
   5900000   0.53356815    -6.9336264      0             -6.1354973      3.6426441    
   6000000   0.51696827    -6.9345941      0             -6.1612957      3.7107122    
   6100000   0.46475229    -6.9076181      0             -6.2124261      3.7763139    
   6200000   0.48578819    -6.9100121      0             -6.1833539      3.7220723    
   6300000   0.51638205    -6.9548192      0             -6.1823977      3.4484471    
   6400000   0.50262763    -6.8954609      0             -6.1436137      3.7978687    
   6500000   0.52667845    -6.8928781      0             -6.1050549      3.7925054    
   6600000   0.49939573    -6.8416427      0             -6.0946299      4.0481345    
   6700000   0.52571166    -6.961219       0             -6.1748419      3.3901507    
   6800000   0.52289533    -6.9121408      0             -6.1299765      3.8299347    
   6900000   0.51743489    -6.8918555      0             -6.1178592      4.0212858    
   7000000   0.5133197     -6.9647553      0             -6.1969145      3.5040939    
   7100000   0.50026598    -6.8727599      0             -6.1244453      4.0763791    
   7200000   0.48464688    -6.9019499      0             -6.1769989      3.7675812    
   7300000   0.51929945    -6.8977548      0             -6.1209694      3.8110127    
   7400000   0.52628915    -6.8841698      0             -6.0969289      3.9892656    
   7500000   0.47797743    -6.8663211      0             -6.1513466      3.9391192    
   7600000   0.48846704    -6.9450165      0             -6.2143512      3.5954278    
   7700000   0.49562786    -6.9430352      0             -6.2016585      3.4120539    
   7800000   0.48224877    -6.8953098      0             -6.173946       3.7445906    
   7900000   0.51062262    -6.9518918      0             -6.1880855      3.5618481    
   8000000   0.49795527    -6.8591783      0             -6.1143202      4.1631149    
   8100000   0.52121075    -6.8667142      0             -6.0870698      4.1412067    
   8200000   0.49506174    -6.8736674      0             -6.1331376      4.0622481    
   8300000   0.51033067    -6.9058976      0             -6.142528       3.8584778    
   8400000   0.51749808    -6.9104406      0             -6.1363497      3.8243415    
   8500000   0.52196347    -6.9489426      0             -6.1681722      3.4869827    
   8600000   0.50199073    -6.9207037      0             -6.1698093      3.6475839    
   8700000   0.49889869    -6.9775158      0             -6.2312465      3.2807691    
   8800000   0.47993199    -6.941662       0             -6.2237637      3.608375     
   8900000   0.43690315    -7.0040972      0             -6.3505629      3.1606026    
   9000000   0.48413562    -6.8840646      0             -6.1598784      4.1862961    
   9100000   0.5019926     -6.889533       0             -6.1386358      4.0191688    
   9200000   0.51729723    -6.8986999      0             -6.1249094      3.8073534    
   9300000   0.44315955    -6.8756713      0             -6.2127784      3.8155643    
   9400000   0.4926427     -6.8589417      0             -6.1220303      3.9946995    
   9500000   0.50530601    -6.8995973      0             -6.1437438      3.8985056    
   9600000   0.46939906    -6.8795116      0             -6.1773688      3.7979852    
   9700000   0.50840283    -6.9337944      0             -6.1733085      3.5650561    
   9800000   0.51869525    -6.8702316      0             -6.09435        3.9546039    
   9900000   0.48599622    -6.928048       0             -6.2010787      3.5809535    
  10000000   0.50226589    -6.9012326      0             -6.1499265      3.7631131    
Loop time of 1050.96 on 4 procs for 10000000 steps with 360 atoms

Performance: 2466315.690 tau/day, 9515.107 timesteps/s, 3.425 Matom-step/s
99.7% CPU use with 4 MPI tasks x 1 OpenMP threads

MPI task timing breakdown:
Section |  min time  |  avg time  |  max time  |%varavg| %total
---------------------------------------------------------------
Pair    | 503.01     | 524.14     | 537.89     |  58.8 | 49.87
Neigh   | 44.861     | 45.357     | 45.741     |   4.8 |  4.32
Comm    | 402.21     | 429.6      | 468.01     | 133.1 | 40.88
Output  | 0.18657    | 0.18709    | 0.18859    |   0.2 |  0.02
Modify  | 24.094     | 41.493     | 57.115     | 229.9 |  3.95
Other   |            | 10.18      |            |       |  0.97

Nlocal:             90 ave          92 max          88 min
Histogram: 2 0 0 0 0 0 0 0 0 2
Nghost:        1245.75 ave        1257 max        1230 min
Histogram: 1 0 0 0 1 0 0 0 1 1
Neighs:         5202.5 ave        5377 max        4970 min
Histogram: 1 0 0 1 0 0 0 0 1 1

Total # of neighbors = 20810
Ave neighs/atom = 57.805556
Neighbor list builds = 265868
Dangerous builds = 679
Total wall time: 0:17:31
