
include ${pot}.lmp
include kalj.lmp
units lj
atom_style atomic

variable dimensions equal 3
variable density equal 1.2
variable fraca equal 0.8

dimension ${dimensions}
dimension 3
read_restart ${prevbasename}.final.lmprestart.${prevsteps}
read_restart equil/kalj_T0.6_n360_v300_1000000_1.final.lmprestart.${prevsteps}
read_restart equil/kalj_T0.6_n360_v300_1000000_1.final.lmprestart.1000000
Reading restart file ...
  restart file = 15 Sep 2022, LAMMPS = 15 Sep 2022
  restoring atom style atomic from restart
  orthogonal box = (0 0 0) to (6.6943295 6.6943295 6.6943295)
  1 by 2 by 2 MPI processor grid
  restoring pair style lj/cut from restart
  360 atoms
  read_restart CPU = 0.002 seconds
include ${pot}_particles.lmp
include kalj_particles.lmp
mass * 1.0 #  set mass 1.0 for all types

pair_style lj/cut 2.5
#pair coeffs type1 type2 eps sigma
pair_coeff 1 1 1.0 1.00 2.5
pair_coeff 1 2 1.5 0.80 2.0
pair_coeff 2 2 0.5 0.88 2.2
pair_modify shift yes
reset_timestep 0

print "Setting up annealing run"
Setting up annealing run
dump 1 all atom ${dumptime} ${basename}.lammpstrj
dump 1 all atom 300000 ${basename}.lammpstrj
dump 1 all atom 300000 equil/kalj_T0.55_n360_v300_3000000_1.lammpstrj
#dump_modify 1 sort id scale no

restart ${restarttime} ${basename}.restart
restart 3000000 ${basename}.restart
restart 3000000 equil/kalj_T0.55_n360_v300_3000000_1.restart
restart ${steps} ${basename}.final.lmprestart
restart 3000000 ${basename}.final.lmprestart
restart 3000000 equil/kalj_T0.55_n360_v300_3000000_1.final.lmprestart

thermo ${thermotime}
thermo 30000
timestep ${timestep}
timestep 0.003

neighbor 0.5 bin
neigh_modify every 1 delay ${neighborstep} check yes
neigh_modify every 1 delay 25 check yes

velocity all create ${temp} ${id} dist gaussian
velocity all create 0.55 ${id} dist gaussian
velocity all create 0.55 1 dist gaussian
fix 1 all nvt temp ${temp} ${temp} ${taut}
fix 1 all nvt temp 0.55 ${temp} ${taut}
fix 1 all nvt temp 0.55 0.55 ${taut}
fix 1 all nvt temp 0.55 0.55 0.3
Resetting global fix info from restart file:
  fix style: nvt, fix ID: 1
run ${steps}
run 3000000
Generated 0 of 1 mixed pair_coeff terms from geometric mixing rule
All restart file global fix info was re-assigned
Neighbor list info ...
  update: every = 1 steps, delay = 25 steps, check = yes
  max neighbors/atom: 2000, page size: 100000
  master list distance cutoff = 3
  ghost atom cutoff = 3
  binsize = 1.5, bins = 5 5 5
  1 neighbor lists, perpetual/occasional/extra = 1 0 0
  (1) pair lj/cut, perpetual
      attributes: half, newton on
      pair build: half/bin/atomonly/newton
      stencil: half/bin/3d
      bin: standard
Per MPI rank memory allocation (min/avg/max) = 4.115 | 4.115 | 4.116 Mbytes
   Step          Temp          E_pair         E_mol          TotEng         Press     
         0   0.55          -6.6648059      0             -5.8420976      5.431744     
     30000   0.52415446    -6.8286103      0             -6.0445626      4.1939915    
     60000   0.5651633     -6.7796103      0             -5.9342202      4.6584126    
     90000   0.58456667    -6.7569467      0             -5.8825324      4.7896508    
    120000   0.57846823    -6.8806173      0             -6.0153252      4.1509674    
    150000   0.59101644    -6.738843       0             -5.8547809      4.91953      
    180000   0.54018716    -6.7742328      0             -5.9662028      4.7299905    
    210000   0.54988659    -6.8219788      0             -5.9994401      4.3934213    
    240000   0.56532265    -6.8500655      0             -6.0044371      4.1142453    
    270000   0.55209976    -6.7905993      0             -5.9647501      4.6062063    
    300000   0.55950112    -6.819447       0             -5.9825266      4.4875989    
    330000   0.54807338    -6.7512018      0             -5.9313754      4.9333023    
    360000   0.55567937    -6.7495847      0             -5.9183809      4.7509783    
    390000   0.56986337    -6.7631462      0             -5.9107255      4.6453858    
    420000   0.58596099    -6.807366       0             -5.930866       4.5578482    
    450000   0.52043962    -6.749788       0             -5.9712971      4.8264389    
    480000   0.56910248    -6.8146774      0             -5.963395       4.4429879    
    510000   0.57017479    -6.7943347      0             -5.9414482      4.5753768    
    540000   0.55464444    -6.7195479      0             -5.8898922      4.9593926    
    570000   0.55143143    -6.7572995      0             -5.93245        4.7102331    
    600000   0.56873723    -6.8042168      0             -5.9534807      4.4432106    
    630000   0.60108766    -6.8232996      0             -5.9241727      4.5564729    
    660000   0.57321085    -6.7804448      0             -5.9230169      4.6672514    
    690000   0.55017843    -6.8058109      0             -5.9828357      4.3023046    
    720000   0.58911965    -6.785675       0             -5.9044502      4.8327403    
    750000   0.53936756    -6.7638446      0             -5.9570406      4.6131543    
    780000   0.5250561     -6.8229544      0             -6.037558       4.4354887    
    810000   0.53978161    -6.8134152      0             -6.0059919      4.4847631    
    840000   0.5822428     -6.8522662      0             -5.981328       4.1756526    
    870000   0.58145618    -6.8459643      0             -5.9762028      4.1966995    
    900000   0.53439486    -6.8527526      0             -6.0533869      4.1646342    
    930000   0.5487769     -6.814615       0             -5.9937362      4.3370289    
    960000   0.54127728    -6.7698176      0             -5.960157       4.6135535    
    990000   0.55398935    -6.7508137      0             -5.922138       4.8055392    
   1020000   0.55690366    -6.7866618      0             -5.9536267      4.572947     
   1050000   0.56365318    -6.8130433      0             -5.9699121      4.2935375    
   1080000   0.52643923    -6.7435476      0             -5.9560823      4.6981783    
   1110000   0.57030674    -6.7873716      0             -5.9342877      4.6475469    
   1140000   0.56396376    -6.8290378      0             -5.985442       4.2997184    
   1170000   0.56548807    -6.7927423      0             -5.9468664      4.5221314    
   1200000   0.57307216    -6.8109334      0             -5.9537129      4.4640999    
   1230000   0.53276289    -6.8833068      0             -6.0863823      3.9299857    
   1260000   0.54074431    -6.8153758      0             -6.0065125      4.2456925    
   1290000   0.55812368    -6.8998005      0             -6.0649405      3.9604334    
   1320000   0.58246076    -6.8533874      0             -5.9821232      4.1289789    
   1350000   0.54481916    -6.8505778      0             -6.0356192      4.0434005    
   1380000   0.53732551    -6.8231706      0             -6.0194211      4.4323057    
   1410000   0.57198446    -6.7936421      0             -5.9380487      4.4569601    
   1440000   0.56311238    -6.8301942      0             -5.9878719      4.3037093    
   1470000   0.53171922    -6.7897016      0             -5.9943383      4.6303811    
   1500000   0.58686244    -6.8284831      0             -5.9506347      4.4151673    
   1530000   0.54139759    -6.8142684      0             -6.0044278      4.3931616    
   1560000   0.52361278    -6.8919427      0             -6.1087052      3.896224     
   1590000   0.51215269    -6.8203054      0             -6.0542103      4.3553216    
   1620000   0.53376725    -6.8418722      0             -6.0434453      4.2133966    
   1650000   0.54380303    -6.7547835      0             -5.9413448      4.8256163    
   1680000   0.58980855    -6.7826953      0             -5.90044        4.616284     
   1710000   0.50551549    -6.8453551      0             -6.0891882      4.2260655    
   1740000   0.51451048    -6.8758118      0             -6.1061899      3.9581992    
   1770000   0.54912439    -6.7829224      0             -5.9615239      4.6645282    
   1800000   0.56549513    -6.813278       0             -5.9673915      4.3584289    
   1830000   0.53019661    -6.7963697      0             -6.003284       4.4069832    
   1860000   0.5988896     -6.7994476      0             -5.9036086      4.3871545    
   1890000   0.54220524    -6.7996839      0             -5.9886352      4.4583909    
   1920000   0.58064774    -6.829779       0             -5.9612267      4.4136804    
   1950000   0.58013383    -6.8112744      0             -5.9434909      4.4660493    
   1980000   0.52217828    -6.7874742      0             -6.0063825      4.3421813    
   2010000   0.56488446    -6.7828464      0             -5.9378734      4.5762335    
   2040000   0.54043348    -6.8031688      0             -5.9947704      4.3585195    
   2070000   0.55123971    -6.8103661      0             -5.9858033      4.4291521    
   2100000   0.54426181    -6.7440008      0             -5.9298758      4.8624523    
   2130000   0.58434111    -6.8114864      0             -5.9374094      4.3604003    
   2160000   0.50823251    -6.7774689      0             -6.0172378      4.6187448    
   2190000   0.51699168    -6.897298       0             -6.1239646      3.7842642    
   2220000   0.58623846    -6.8133924      0             -5.9364774      4.24523      
   2250000   0.54973221    -6.8350345      0             -6.0127267      4.1963036    
   2280000   0.54536445    -6.7457382      0             -5.9299639      4.7520216    
   2310000   0.50261776    -6.8068431      0             -6.0550107      4.4418294    
   2340000   0.54728355    -6.7833484      0             -5.9647035      4.4428933    
   2370000   0.57130205    -6.7860768      0             -5.9315041      4.5920415    
   2400000   0.55242518    -6.769545       0             -5.943209       4.6514668    
   2430000   0.57779279    -6.7272072      0             -5.8629255      5.188281     
   2460000   0.55365638    -6.8347753      0             -6.0065976      4.2040601    
   2490000   0.56528383    -6.8236103      0             -5.9780399      4.2392755    
   2520000   0.52374353    -6.8147652      0             -6.0313322      4.2470397    
   2550000   0.55224682    -6.8203059      0             -5.9942367      4.239543     
   2580000   0.55770628    -6.8121397      0             -5.9779041      4.4720486    
   2610000   0.55039697    -6.7348782      0             -5.9115761      5.0297201    
   2640000   0.55437704    -6.8792969      0             -6.0500413      3.9996944    
   2670000   0.50993936    -6.8556131      0             -6.0928288      4.0965096    
   2700000   0.52219316    -6.8061268      0             -6.0250128      4.2052438    
   2730000   0.56246151    -6.8197949      0             -5.9784463      4.341459     
   2760000   0.56826573    -6.7888069      0             -5.9387761      4.7262306    
   2790000   0.52595493    -6.8657035      0             -6.0789625      4.0260134    
   2820000   0.56711544    -6.7512894      0             -5.9029792      4.7129722    
   2850000   0.51013818    -6.7716691      0             -6.0085874      4.4198271    
   2880000   0.55199707    -6.8118158      0             -5.9861202      4.4337154    
   2910000   0.53628741    -6.7625896      0             -5.960393       4.7783257    
   2940000   0.55799368    -6.8399901      0             -6.0053245      4.1864901    
   2970000   0.51392929    -6.8717129      0             -6.1029604      4.0209117    
   3000000   0.53963069    -6.8617778      0             -6.0545803      4.24813      
Loop time of 314.849 on 4 procs for 3000000 steps with 360 atoms

Performance: 2469757.745 tau/day, 9528.386 timesteps/s, 3.430 Matom-step/s
99.6% CPU use with 4 MPI tasks x 1 OpenMP threads

MPI task timing breakdown:
Section |  min time  |  avg time  |  max time  |%varavg| %total
---------------------------------------------------------------
Pair    | 153.74     | 157.45     | 162.89     |  28.6 | 50.01
Neigh   | 14.425     | 14.656     | 15.145     |   7.5 |  4.65
Comm    | 121.07     | 126.75     | 135.89     |  49.1 | 40.26
Output  | 0.17819    | 0.17854    | 0.1795     |   0.1 |  0.06
Modify  | 7.4919     | 12.826     | 17.808     | 130.3 |  4.07
Other   |            | 2.995      |            |       |  0.95

Nlocal:             90 ave          93 max          86 min
Histogram: 1 0 0 0 0 1 0 1 0 1
Nghost:           1237 ave        1258 max        1226 min
Histogram: 2 0 1 0 0 0 0 0 0 1
Neighs:           5175 ave        5248 max        5048 min
Histogram: 1 0 0 0 0 1 0 0 0 2

Total # of neighbors = 20700
Ave neighs/atom = 57.5
Neighbor list builds = 84878
Dangerous builds = 637
Total wall time: 0:05:14
